Optimal - objective value 3.00000000
      0 C0000000               3                      -0
      1 C0000001               3                      -0
      0 X0000000               3                       1
